p wcnf 51 77 10
5 -1 0
5 -2 0
5 -3 0
5 -4 0
5 -5 0
5 -6 0
5 -7 0
5 -8 0
5 -9 0
5 -10 0
5 -11 0
5 -12 0
5 -13 0
5 -14 0
5 -15 0
5 -16 0
5 -17 0
5 -18 0
5 -19 0
5 -20 0
5 -21 0
5 -22 0
5 -23 0
5 -24 0
5 -25 0
5 -26 0
5 -27 0
5 -28 0
5 -29 0
5 -30 0
5 -31 0
5 -32 0
5 -33 0
5 -34 0
5 -35 0
5 -36 0
5 -37 0
5 -38 0
5 -39 0
5 -40 0
5 -41 0
5 -42 0
5 -43 0
5 -44 0
5 -45 0
5 -46 0
5 -47 0
5 -48 0
5 -49 0
5 -50 0
10 1 2 3 4 5 6 7 8 9 10 11 12 13 14 15 16 17 18 19 20 21 22 23 24 25 26 27 28 29 30 31 32 33 34 35 36 37 38 39 40 41 42 43 44 45 46 47 48 49 50 0
10 51 0
x 10 1 26 28 32 35 41 42 44 45 48 49 50 51 0
x 10 2 26 27 31 32 33 34 35 37 41 44 45 46 47 49 51 0
x 10 3 27 28 29 31 32 37 39 40 41 45 46 50 51 0
x 10 4 26 27 29 31 32 35 36 37 39 40 43 48 50 51 0
x 10 5 26 28 29 32 36 37 38 39 40 45 48 49 51 0
x 10 6 26 28 29 32 33 35 36 37 42 43 44 45 47 49 51 0
x 10 7 26 29 31 33 34 36 41 42 44 45 48 50 51 0
x 10 8 26 27 28 30 33 34 38 40 43 46 48 49 51 0
x 10 9 26 28 29 32 34 35 36 37 38 41 43 45 49 51 0
x 10 10 27 30 31 33 37 38 40 41 42 46 47 48 50 51 0
x 10 11 27 28 29 32 33 37 38 40 41 42 46 47 48 49 50 51 0
x 10 12 26 29 31 36 37 39 40 41 43 44 45 46 47 48 50 51 0
x 10 13 27 31 32 38 39 42 43 44 49 50 51 0
x 10 14 31 33 35 37 39 45 48 51 0
x 10 15 26 35 36 38 43 45 48 49 50 51 0
x 10 16 28 29 32 33 35 36 37 42 44 46 47 48 49 50 51 0
x 10 17 26 28 30 32 36 37 38 39 41 42 43 44 46 50 51 0
x 10 18 32 33 34 35 41 43 46 51 0
x 10 19 27 29 32 33 34 35 36 37 38 39 41 42 45 46 49 51 0
x 10 20 26 31 35 37 39 40 42 44 46 47 48 51 0
x 10 21 26 29 30 31 32 35 36 38 39 41 42 46 47 49 51 0
x 10 22 27 29 32 33 34 39 40 41 43 47 50 51 0
x 10 23 26 27 30 31 32 33 34 37 39 40 41 43 44 48 49 50 51 0
x 10 24 26 28 33 35 36 39 41 42 43 47 48 49 50 51 0
x 10 25 26 27 28 33 35 38 41 46 47 51 0
